NAME : input200_6.txt .out.tour
COMMENT : Tour for input200_6.txt .tsp (Length 2968.96)
TYPE : TOUR
DIMENSION : 200
TOUR_SECTION
1
5
70
82
188
15
4
199
184
159
33
112
47
43
174
87
99
61
119
137
200
3
183
169
8
173
100
53
81
105
6
44
28
85
198
131
37
63
189
190
94
195
27
141
51
19
79
83
164
114
30
166
92
29
38
155
40
59
71
11
104
106
187
7
145
22
18
134
197
185
191
158
180
62
170
2
110
168
50
143
14
150
196
67
77
140
88
161
179
135
172
126
127
54
34
160
41
86
52
60
147
24
25
103
69
152
136
156
31
175
121
80
193
98
9
13
68
192
163
64
95
130
153
124
116
194
132
129
176
171
76
177
20
74
154
84
133
48
16
65
36
149
49
146
138
46
35
45
73
148
75
111
125
32
42
101
123
23
115
58
113
144
21
90
139
109
91
97
186
178
56
167
66
107
72
39
96
93
17
162
102
26
157
55
182
78
165
120
122
117
89
142
151
10
118
128
108
57
181
12
1
